webassembly/ejemplos_dzn/folder9_json_4.dzn
TERM = { '.', 's(2)', 'in_1', 'local_0', 'local_1', 'in_2', 'in_4', 'in_3', 's(1)', 's(0)', 'in_5', 's(3)', 'in_0'};
null = '.';
s = 9;
n = 11;
ndeps = 5;
max_registers_sz = 5;
NR = 2;
registers = [|'local_0', 's(0)', |'local_1', 'in_3'|];
dependencies = [|'i32.load16_s_0', 'i32.store16_2', |'i32.store16_2', 'i32.store_4', |'i32.store_4', 'i32.load_5', |'i32.store_4', 'i32.load16_u_6', |'i32.store_4', 'i32.load8_u_8'|];
GET_ENUM = { GET1, GET2, GET3, GET4, GET5, GET6, GET7};
SET_ENUM = { SET1, SET2, SET3, SET4, SET5, SET6, SET7};
TEE_ENUM = { TEE1, TEE2, TEE3, TEE4, TEE5, TEE6, TEE7};
N = 6;
OP = { 'i32.load16_s_0', 'i32.store16_2', 'i32.store_4', 'i32.load_5', 'i32.load16_u_6', 'i32.load8_u_8' };
in_ops = [1, 2, 2, 1, 1, 1 ];
out_ops = [1, 0, 0, 1, 1, 1 ];
in1 = ['in_0', 'in_1', 'in_3', 'in_5', 's(1)', 'in_3' ];
in2 = ['.', 'in_2', 'in_4', '.', '.', '.' ];
in3 = ['.', '.', '.', '.', '.', '.' ];
out1 = ['s(0)', '.', '.', 's(1)', 's(2)', 's(3)' ];
out2 = ['.', '.', '.', '.', '.', '.' ];
out3 = ['.', '.', '.', '.', '.', '.' ];
comm = [false, false, false, false, false, false ];
gas = [1, 1, 1, 1, 1, 1 ];
sz = [1, 1, 1, 1, 1, 1 ];
stor = [false, true, true, false, false, false ];
lb = [ 1, 1, 1, 1, 1, 1 ];
ub = [ 9, 9, 9, 9, 9, 9 ];
startstack = [ 'in_0', 'in_1', 'in_2', 'in_3', 'in_4', 'in_5', null, null, null, null, null ];
endstack = [ 's(3)', 's(2)', null, null, null, null, null, null, null, null, null ];
